\ Model diet_lp_mega
\ LP format - for model browsing. Use MPS format to capture full model detail.
\ Signature: 0xb118d137a08db89b
Minimize
  0.4 x[Oatmeal] + 0.5 x[Milk] + 0.3 x[Egg] + 0.25 x[Banana]
   + 0.38 x[Grain_001] + 0.75 x[Grain_002] + 0.93 x[Grain_003]
   + 0.97 x[Grain_004] + 0.56 x[Grain_005] + 0.33 x[Grain_006]
   + 0.9 x[Grain_007] + 1.35 x[Grain_008] + 0.5 x[Grain_009]
   + 0.69 x[Grain_010] + 0.47 x[Grain_011] + 1.03 x[Grain_012]
   + 1.49 x[Grain_013] + 1.2 x[Grain_014] + 0.55 x[Grain_015]
   + 0.48 x[Grain_016] + 0.54 x[Grain_017] + 0.76 x[Grain_018]
   + 0.86 x[Grain_019] + 0.41 x[Grain_020] + 1.49 x[Grain_021]
   + 1.08 x[Grain_022] + 1.03 x[Grain_023] + 1.14 x[Grain_024]
   + 1.39 x[Grain_025] + 0.4 x[Grain_026] + 1.39 x[Grain_027]
   + 1.34 x[Grain_028] + 0.3 x[Grain_029] + 1.2 x[Grain_030]
   + 0.89 x[Grain_031] + 1.15 x[Grain_032] + 0.69 x[Grain_033]
   + 0.23 x[Grain_034] + 1.02 x[Grain_035] + 0.87 x[Grain_036]
   + 1.42 x[Grain_037] + 0.73 x[Grain_038] + 0.81 x[Grain_039]
   + 0.28 x[Grain_040] + 0.45 x[Grain_041] + 1.34 x[Grain_042]
   + 0.27 x[Grain_043] + 1.3 x[Grain_044] + 1.37 x[Grain_045]
   + 1.22 x[Grain_046] + 1.22 x[Grain_047] + 1.46 x[Grain_048]
   + 0.27 x[Grain_049] + 1.45 x[Grain_050] + 1.08 x[Dairy_001]
   + 0.84 x[Dairy_002] + 0.58 x[Dairy_003] + 0.66 x[Dairy_004]
   + 1.14 x[Dairy_005] + 0.37 x[Dairy_006] + 0.36 x[Dairy_007]
   + 0.93 x[Dairy_008] + 0.9 x[Dairy_009] + 0.42 x[Dairy_010]
   + 0.55 x[Dairy_011] + 0.54 x[Dairy_012] + 0.87 x[Dairy_013]
   + 1.18 x[Dairy_014] + 0.31 x[Dairy_015] + 0.33 x[Dairy_016]
   + 0.58 x[Dairy_017] + 0.39 x[Dairy_018] + 0.97 x[Dairy_019]
   + 1.09 x[Dairy_020] + 0.67 x[Dairy_021] + 1.01 x[Dairy_022]
   + 0.48 x[Dairy_023] + 0.5 x[Dairy_024] + 1.17 x[Dairy_025]
   + 1.06 x[Dairy_026] + 0.46 x[Dairy_027] + 1.01 x[Dairy_028]
   + 0.82 x[Dairy_029] + 1.03 x[Dairy_030] + 0.63 x[Dairy_031]
   + 0.9 x[Dairy_032] + 0.67 x[Dairy_033] + 0.9 x[Dairy_034]
   + 0.57 x[Dairy_035] + 1.01 x[Dairy_036] + 0.49 x[Dairy_037]
   + 0.89 x[Dairy_038] + 1.04 x[Dairy_039] + 0.43 x[Dairy_040]
   + 0.37 x[Dairy_041] + 0.65 x[Dairy_042] + 0.98 x[Dairy_043]
   + 1.02 x[Dairy_044] + 1.06 x[Dairy_045] + 0.8 x[Dairy_046]
   + 0.95 x[Dairy_047] + 0.44 x[Dairy_048] + 0.55 x[Dairy_049]
   + 0.37 x[Dairy_050] + 0.66 x[Meat_001] + 0.63 x[Meat_002]
   + 2.17 x[Meat_003] + 2.21 x[Meat_004] + 2.01 x[Meat_005]
   + 2.3 x[Meat_006] + 1.17 x[Meat_007] + 2.46 x[Meat_008]
   + 0.55 x[Meat_009] + 1.26 x[Meat_010] + 1.06 x[Meat_011]
   + 1.58 x[Meat_012] + 0.58 x[Meat_013] + 0.8 x[Meat_014]
   + 1.43 x[Meat_015] + 2 x[Meat_016] + 1.66 x[Meat_017] + 2.38 x[Meat_018]
   + 0.7 x[Meat_019] + 2.47 x[Meat_020] + 1.51 x[Meat_021]
   + 1.37 x[Meat_022] + 1.37 x[Meat_023] + 1.58 x[Meat_024]
   + 1.14 x[Meat_025] + 0.99 x[Meat_026] + 1.49 x[Meat_027]
   + 1.18 x[Meat_028] + 0.98 x[Meat_029] + 1.79 x[Meat_030]
   + 1.31 x[Meat_031] + 1.56 x[Meat_032] + 1.41 x[Meat_033]
   + 0.74 x[Meat_034] + 1.98 x[Meat_035] + 1.07 x[Meat_036]
   + 1.1 x[Meat_037] + 1.08 x[Meat_038] + 0.52 x[Meat_039]
   + 0.6 x[Meat_040] + 1.65 x[Meat_041] + 0.67 x[Meat_042]
   + 2.08 x[Meat_043] + 1.09 x[Meat_044] + 1.72 x[Meat_045]
   + 1.82 x[Meat_046] + 1.32 x[Meat_047] + 1.91 x[Meat_048]
   + 2.08 x[Meat_049] + 1.59 x[Meat_050] + 0.33 x[Fruit_001]
   + 0.55 x[Fruit_002] + 0.6 x[Fruit_003] + 0.79 x[Fruit_004]
   + 0.89 x[Fruit_005] + 0.23 x[Fruit_006] + 0.35 x[Fruit_007]
   + 0.48 x[Fruit_008] + 0.53 x[Fruit_009] + 0.64 x[Fruit_010]
   + 0.82 x[Fruit_011] + 0.57 x[Fruit_012] + 0.7 x[Fruit_013]
   + 0.55 x[Fruit_014] + 0.39 x[Fruit_015] + 0.38 x[Fruit_016]
   + 0.6 x[Fruit_017] + 0.98 x[Fruit_018] + 0.68 x[Fruit_019]
   + 0.53 x[Fruit_020] + 0.87 x[Fruit_021] + 0.47 x[Fruit_022]
   + 0.98 x[Fruit_023] + 0.23 x[Fruit_024] + 0.73 x[Fruit_025]
   + 0.67 x[Fruit_026] + 0.57 x[Fruit_027] + 0.58 x[Fruit_028]
   + 0.88 x[Fruit_029] + 0.81 x[Fruit_030] + 0.94 x[Fruit_031]
   + 0.71 x[Fruit_032] + 0.24 x[Fruit_033] + 0.62 x[Fruit_034]
   + 0.7 x[Fruit_035] + 0.71 x[Fruit_036] + 0.92 x[Fruit_037]
   + 0.67 x[Fruit_038] + x[Fruit_039] + 0.44 x[Fruit_040]
   + 0.21 x[Fruit_041] + 0.92 x[Fruit_042] + 0.7 x[Fruit_043]
   + 0.45 x[Fruit_044] + 0.93 x[Fruit_045] + 0.63 x[Fruit_046]
   + 0.41 x[Fruit_047] + 0.84 x[Fruit_048] + 0.89 x[Fruit_049]
   + 0.83 x[Fruit_050] + 0.7 x[Veg_001] + 0.19 x[Veg_002] + 0.36 x[Veg_003]
   + 0.83 x[Veg_004] + 0.13 x[Veg_005] + 0.41 x[Veg_006] + 0.44 x[Veg_007]
   + 0.77 x[Veg_008] + 0.4 x[Veg_009] + 0.88 x[Veg_010] + 0.42 x[Veg_011]
   + 0.17 x[Veg_012] + 0.73 x[Veg_013] + 0.76 x[Veg_014] + 0.36 x[Veg_015]
   + 0.89 x[Veg_016] + 0.79 x[Veg_017] + 0.36 x[Veg_018] + 0.19 x[Veg_019]
   + 0.19 x[Veg_020] + 0.83 x[Veg_021] + 0.15 x[Veg_022] + 0.67 x[Veg_023]
   + 0.15 x[Veg_024] + 0.4 x[Veg_025] + 0.18 x[Veg_026] + 0.54 x[Veg_027]
   + 0.37 x[Veg_028] + 0.35 x[Veg_029] + 0.15 x[Veg_030] + 0.4 x[Veg_031]
   + 0.36 x[Veg_032] + 0.44 x[Veg_033] + 0.38 x[Veg_034] + 0.78 x[Veg_035]
   + 0.56 x[Veg_036]
Subject To
 calories: 150 x[Oatmeal] + 120 x[Milk] + 78 x[Egg] + 105 x[Banana]
   + 201 x[Grain_001] + 133 x[Grain_002] + 123 x[Grain_003]
   + 211 x[Grain_004] + 120 x[Grain_005] + 147 x[Grain_006]
   + 164 x[Grain_007] + 168 x[Grain_008] + 166 x[Grain_009]
   + 157 x[Grain_010] + 178 x[Grain_011] + 154 x[Grain_012]
   + 188 x[Grain_013] + 201 x[Grain_014] + 127 x[Grain_015]
   + 147 x[Grain_016] + 183 x[Grain_017] + 151 x[Grain_018]
   + 194 x[Grain_019] + 131 x[Grain_020] + 207 x[Grain_021]
   + 187 x[Grain_022] + 134 x[Grain_023] + 134 x[Grain_024]
   + 212 x[Grain_025] + 200 x[Grain_026] + 217 x[Grain_027]
   + 196 x[Grain_028] + 159 x[Grain_029] + 213 x[Grain_030]
   + 136 x[Grain_031] + 197 x[Grain_032] + 145 x[Grain_033]
   + 186 x[Grain_034] + 190 x[Grain_035] + 149 x[Grain_036]
   + 155 x[Grain_037] + 193 x[Grain_038] + 132 x[Grain_039]
   + 213 x[Grain_040] + 213 x[Grain_041] + 177 x[Grain_042]
   + 129 x[Grain_043] + 189 x[Grain_044] + 141 x[Grain_045]
   + 141 x[Grain_046] + 178 x[Grain_047] + 204 x[Grain_048]
   + 194 x[Grain_049] + 181 x[Grain_050] + 90 x[Dairy_001]
   + 131 x[Dairy_002] + 159 x[Dairy_003] + 113 x[Dairy_004]
   + 165 x[Dairy_005] + 81 x[Dairy_006] + 107 x[Dairy_007]
   + 111 x[Dairy_008] + 158 x[Dairy_009] + 150 x[Dairy_010]
   + 94 x[Dairy_011] + 106 x[Dairy_012] + 142 x[Dairy_013]
   + 115 x[Dairy_014] + 100 x[Dairy_015] + 89 x[Dairy_016]
   + 127 x[Dairy_017] + 85 x[Dairy_018] + 179 x[Dairy_019]
   + 110 x[Dairy_020] + 83 x[Dairy_021] + 165 x[Dairy_022]
   + 93 x[Dairy_023] + 138 x[Dairy_024] + 164 x[Dairy_025]
   + 115 x[Dairy_026] + 122 x[Dairy_027] + 113 x[Dairy_028]
   + 135 x[Dairy_029] + 112 x[Dairy_030] + 167 x[Dairy_031]
   + 88 x[Dairy_032] + 95 x[Dairy_033] + 131 x[Dairy_034]
   + 128 x[Dairy_035] + 150 x[Dairy_036] + 157 x[Dairy_037]
   + 140 x[Dairy_038] + 116 x[Dairy_039] + 176 x[Dairy_040]
   + 85 x[Dairy_041] + 133 x[Dairy_042] + 131 x[Dairy_043]
   + 178 x[Dairy_044] + 169 x[Dairy_045] + 138 x[Dairy_046]
   + 120 x[Dairy_047] + 144 x[Dairy_048] + 140 x[Dairy_049]
   + 179 x[Dairy_050] + 173 x[Meat_001] + 138 x[Meat_002] + 204 x[Meat_003]
   + 199 x[Meat_004] + 247 x[Meat_005] + 207 x[Meat_006] + 224 x[Meat_007]
   + 203 x[Meat_008] + 236 x[Meat_009] + 209 x[Meat_010] + 154 x[Meat_011]
   + 207 x[Meat_012] + 189 x[Meat_013] + 107 x[Meat_014] + 132 x[Meat_015]
   + 165 x[Meat_016] + 129 x[Meat_017] + 179 x[Meat_018] + 150 x[Meat_019]
   + 177 x[Meat_020] + 110 x[Meat_021] + 187 x[Meat_022] + 192 x[Meat_023]
   + 233 x[Meat_024] + 223 x[Meat_025] + 162 x[Meat_026] + 218 x[Meat_027]
   + 183 x[Meat_028] + 170 x[Meat_029] + 204 x[Meat_030] + 225 x[Meat_031]
   + 162 x[Meat_032] + 208 x[Meat_033] + 178 x[Meat_034] + 237 x[Meat_035]
   + 170 x[Meat_036] + 125 x[Meat_037] + 236 x[Meat_038] + 132 x[Meat_039]
   + 172 x[Meat_040] + 222 x[Meat_041] + 113 x[Meat_042] + 163 x[Meat_043]
   + 157 x[Meat_044] + 250 x[Meat_045] + 125 x[Meat_046] + 140 x[Meat_047]
   + 220 x[Meat_048] + 216 x[Meat_049] + 250 x[Meat_050] + 69 x[Fruit_001]
   + 89 x[Fruit_002] + 109 x[Fruit_003] + 113 x[Fruit_004]
   + 82 x[Fruit_005] + 52 x[Fruit_006] + 72 x[Fruit_007] + 105 x[Fruit_008]
   + 92 x[Fruit_009] + 113 x[Fruit_010] + 108 x[Fruit_011]
   + 115 x[Fruit_012] + 56 x[Fruit_013] + 56 x[Fruit_014]
   + 112 x[Fruit_015] + 70 x[Fruit_016] + 64 x[Fruit_017] + 87 x[Fruit_018]
   + 81 x[Fruit_019] + 67 x[Fruit_020] + 114 x[Fruit_021]
   + 112 x[Fruit_022] + 119 x[Fruit_023] + 80 x[Fruit_024]
   + 110 x[Fruit_025] + 69 x[Fruit_026] + 62 x[Fruit_027] + 68 x[Fruit_028]
   + 83 x[Fruit_029] + 118 x[Fruit_030] + 119 x[Fruit_031]
   + 79 x[Fruit_032] + 62 x[Fruit_033] + 57 x[Fruit_034] + 73 x[Fruit_035]
   + 80 x[Fruit_036] + 108 x[Fruit_037] + 119 x[Fruit_038]
   + 104 x[Fruit_039] + 111 x[Fruit_040] + 87 x[Fruit_041]
   + 56 x[Fruit_042] + 79 x[Fruit_043] + 67 x[Fruit_044] + 106 x[Fruit_045]
   + 91 x[Fruit_046] + 96 x[Fruit_047] + 111 x[Fruit_048]
   + 109 x[Fruit_049] + 100 x[Fruit_050] + 20 x[Veg_001] + 36 x[Veg_002]
   + 34 x[Veg_003] + 59 x[Veg_004] + 39 x[Veg_005] + 51 x[Veg_006]
   + 43 x[Veg_007] + 67 x[Veg_008] + 59 x[Veg_009] + 48 x[Veg_010]
   + 43 x[Veg_011] + 32 x[Veg_012] + 33 x[Veg_013] + 35 x[Veg_014]
   + 55 x[Veg_015] + 29 x[Veg_016] + 28 x[Veg_017] + 28 x[Veg_018]
   + 31 x[Veg_019] + 24 x[Veg_020] + 52 x[Veg_021] + 62 x[Veg_022]
   + 50 x[Veg_023] + 48 x[Veg_024] + 37 x[Veg_025] + 58 x[Veg_026]
   + 64 x[Veg_027] + 75 x[Veg_028] + 49 x[Veg_029] + 36 x[Veg_030]
   + 73 x[Veg_031] + 28 x[Veg_032] + 27 x[Veg_033] + 78 x[Veg_034]
   + 56 x[Veg_035] + 42 x[Veg_036] >= 2000
 protein: 5 x[Oatmeal] + 8 x[Milk] + 6 x[Egg] + x[Banana]
   + 3.6 x[Grain_001] + 6.4 x[Grain_002] + 3.5 x[Grain_003]
   + 6.2 x[Grain_004] + 6.8 x[Grain_005] + 7.8 x[Grain_006]
   + 6 x[Grain_007] + 3.4 x[Grain_008] + 5.9 x[Grain_009]
   + 7.9 x[Grain_010] + 6.2 x[Grain_011] + 6.5 x[Grain_012]
   + 6.6 x[Grain_013] + 6.4 x[Grain_014] + 4.1 x[Grain_015]
   + 7.6 x[Grain_016] + 5 x[Grain_017] + 6.7 x[Grain_018] + 5 x[Grain_019]
   + 6.8 x[Grain_020] + 5.1 x[Grain_021] + 4.3 x[Grain_022]
   + 6.4 x[Grain_023] + 4.5 x[Grain_024] + 4.3 x[Grain_025]
   + 4.5 x[Grain_026] + 3.8 x[Grain_027] + 4.6 x[Grain_028]
   + 4.2 x[Grain_029] + 5.4 x[Grain_030] + 6.3 x[Grain_031]
   + 5.1 x[Grain_032] + 6.6 x[Grain_033] + 5.3 x[Grain_034]
   + 4.2 x[Grain_035] + 3.3 x[Grain_036] + 6.3 x[Grain_037]
   + 5.9 x[Grain_038] + 3.5 x[Grain_039] + 3.3 x[Grain_040]
   + 4.7 x[Grain_041] + 3.7 x[Grain_042] + 5.2 x[Grain_043]
   + 7.2 x[Grain_044] + 5 x[Grain_045] + 4.9 x[Grain_046]
   + 4.4 x[Grain_047] + 6.6 x[Grain_048] + 6.7 x[Grain_049]
   + 5.5 x[Grain_050] + 11 x[Dairy_001] + 5.8 x[Dairy_002]
   + 5.6 x[Dairy_003] + 6.4 x[Dairy_004] + 9.5 x[Dairy_005]
   + 8.2 x[Dairy_006] + 8.5 x[Dairy_007] + 7.6 x[Dairy_008]
   + 11.9 x[Dairy_009] + 7.1 x[Dairy_010] + 11.2 x[Dairy_011]
   + 10 x[Dairy_012] + 6.8 x[Dairy_013] + 5.3 x[Dairy_014]
   + 10.2 x[Dairy_015] + 11.6 x[Dairy_016] + 9.1 x[Dairy_017]
   + 11.3 x[Dairy_018] + 8.9 x[Dairy_019] + 11.1 x[Dairy_020]
   + 6.3 x[Dairy_021] + 11 x[Dairy_022] + 7.7 x[Dairy_023]
   + 7.4 x[Dairy_024] + 6.4 x[Dairy_025] + 7.5 x[Dairy_026]
   + 11.6 x[Dairy_027] + 5.3 x[Dairy_028] + 9.2 x[Dairy_029]
   + 5.3 x[Dairy_030] + 10 x[Dairy_031] + 11.6 x[Dairy_032]
   + 10 x[Dairy_033] + 9.9 x[Dairy_034] + 9.7 x[Dairy_035]
   + 10.8 x[Dairy_036] + 9.6 x[Dairy_037] + 10.6 x[Dairy_038]
   + 8.6 x[Dairy_039] + 6.6 x[Dairy_040] + 6.7 x[Dairy_041]
   + 11.2 x[Dairy_042] + 6.7 x[Dairy_043] + 11.2 x[Dairy_044]
   + 8.6 x[Dairy_045] + 5.9 x[Dairy_046] + 11.7 x[Dairy_047]
   + 8 x[Dairy_048] + 8.2 x[Dairy_049] + 8.6 x[Dairy_050]
   + 13.5 x[Meat_001] + 13.5 x[Meat_002] + 15 x[Meat_003]
   + 23.6 x[Meat_004] + 15.7 x[Meat_005] + 18.1 x[Meat_006]
   + 13.3 x[Meat_007] + 20.9 x[Meat_008] + 10.4 x[Meat_009]
   + 12 x[Meat_010] + 16.8 x[Meat_011] + 13.8 x[Meat_012]
   + 13.4 x[Meat_013] + 24.2 x[Meat_014] + 17.1 x[Meat_015]
   + 21.5 x[Meat_016] + 21.7 x[Meat_017] + 18.6 x[Meat_018]
   + 11.1 x[Meat_019] + 22.8 x[Meat_020] + 15.2 x[Meat_021]
   + 10.2 x[Meat_022] + 19.5 x[Meat_023] + 24.5 x[Meat_024]
   + 17 x[Meat_025] + 22.5 x[Meat_026] + 18.5 x[Meat_027]
   + 12.7 x[Meat_028] + 18.3 x[Meat_029] + 17.3 x[Meat_030]
   + 16.7 x[Meat_031] + 14.6 x[Meat_032] + 24.9 x[Meat_033]
   + 13.8 x[Meat_034] + 24.3 x[Meat_035] + 20.9 x[Meat_036]
   + 22.5 x[Meat_037] + 11.9 x[Meat_038] + 19.6 x[Meat_039]
   + 17 x[Meat_040] + 11.7 x[Meat_041] + 12.3 x[Meat_042]
   + 11.8 x[Meat_043] + 21.6 x[Meat_044] + 24.9 x[Meat_045]
   + 24.2 x[Meat_046] + 13.6 x[Meat_047] + 14.4 x[Meat_048]
   + 11.1 x[Meat_049] + 19.9 x[Meat_050] + 1.8 x[Fruit_001]
   + 1.2 x[Fruit_002] + 1.4 x[Fruit_003] + 0.9 x[Fruit_004]
   + 0.1 x[Fruit_005] + 2 x[Fruit_006] + 0.9 x[Fruit_007]
   + 1.3 x[Fruit_008] + 0.6 x[Fruit_009] + 0.6 x[Fruit_010]
   + 0.2 x[Fruit_011] + 1.6 x[Fruit_012] + 0.4 x[Fruit_013]
   + 0.4 x[Fruit_014] + 0.2 x[Fruit_015] + 0.6 x[Fruit_016]
   + 0.9 x[Fruit_017] + x[Fruit_018] + 0.9 x[Fruit_019] + 1.7 x[Fruit_020]
   + 0.5 x[Fruit_021] + 1.7 x[Fruit_022] + 0.8 x[Fruit_023]
   + 1.1 x[Fruit_024] + 1.4 x[Fruit_025] + x[Fruit_026] + 1.7 x[Fruit_027]
   + 0.8 x[Fruit_028] + 0.7 x[Fruit_029] + 0.8 x[Fruit_030]
   + 0.1 x[Fruit_031] + 1.5 x[Fruit_032] + 0.9 x[Fruit_033]
   + 0.6 x[Fruit_034] + 0.3 x[Fruit_035] + x[Fruit_036] + 0.5 x[Fruit_037]
   + 0.3 x[Fruit_038] + 1.4 x[Fruit_039] + 0.2 x[Fruit_040]
   + 1.8 x[Fruit_042] + 1.2 x[Fruit_043] + 1.3 x[Fruit_044]
   + 0.1 x[Fruit_045] + 1.5 x[Fruit_046] + 1.1 x[Fruit_047]
   + 1.9 x[Fruit_048] + 1.9 x[Fruit_049] + 1.9 x[Fruit_050]
   + 2.1 x[Veg_001] + 3.3 x[Veg_002] + 2.9 x[Veg_003] + 1.9 x[Veg_004]
   + 3.6 x[Veg_005] + 1.5 x[Veg_006] + 3.7 x[Veg_007] + 3.9 x[Veg_008]
   + 2.6 x[Veg_009] + 2.8 x[Veg_010] + 3.2 x[Veg_011] + 4.9 x[Veg_012]
   + 3.6 x[Veg_013] + 5 x[Veg_014] + 1.8 x[Veg_015] + 4.2 x[Veg_016]
   + 3.2 x[Veg_017] + 1.1 x[Veg_018] + 2.1 x[Veg_019] + 2.9 x[Veg_020]
   + 1.9 x[Veg_021] + 3.1 x[Veg_022] + 4.4 x[Veg_023] + 1.3 x[Veg_024]
   + 3.5 x[Veg_025] + 3.1 x[Veg_026] + 1.5 x[Veg_027] + 1.9 x[Veg_028]
   + 2.6 x[Veg_029] + 2.5 x[Veg_030] + 1.3 x[Veg_031] + 3.2 x[Veg_032]
   + 2.6 x[Veg_033] + 3.9 x[Veg_034] + 3 x[Veg_035] + 4.4 x[Veg_036] >= 50
 vitaminC: 10 x[Banana] + 0.5 x[Grain_001] + 0.2 x[Grain_002]
   + 1.2 x[Grain_003] + 0.4 x[Grain_004] + 0.8 x[Grain_005]
   + 0.2 x[Grain_006] + 1.5 x[Grain_007] + 1.3 x[Grain_008]
   + 0.1 x[Grain_009] + 1.7 x[Grain_010] + 0.7 x[Grain_011]
   + 0.1 x[Grain_012] + 0.8 x[Grain_013] + 0.6 x[Grain_014]
   + 0.6 x[Grain_015] + 1.4 x[Grain_016] + 0.9 x[Grain_017]
   + 1.5 x[Grain_018] + 2 x[Grain_019] + 0.3 x[Grain_020]
   + 0.8 x[Grain_021] + 1.9 x[Grain_022] + 0.5 x[Grain_023]
   + 0.4 x[Grain_025] + 1.2 x[Grain_026] + 1.8 x[Grain_027]
   + 1.9 x[Grain_028] + 1.1 x[Grain_029] + 1.5 x[Grain_030]
   + 0.3 x[Grain_031] + 1.1 x[Grain_032] + 1.3 x[Grain_033]
   + 0.1 x[Grain_034] + 0.1 x[Grain_035] + 0.7 x[Grain_036]
   + 0.3 x[Grain_037] + 0.9 x[Grain_038] + 0.8 x[Grain_039]
   + 1.3 x[Grain_040] + 0.5 x[Grain_041] + 0.9 x[Grain_042]
   + 1.1 x[Grain_043] + 1.9 x[Grain_044] + 1.7 x[Grain_045]
   + 0.5 x[Grain_046] + 1.5 x[Grain_047] + 0.6 x[Grain_048]
   + 0.6 x[Grain_049] + 0.3 x[Grain_050] + 0.1 x[Dairy_001]
   + 0.2 x[Dairy_002] + 0.6 x[Dairy_003] + 0.2 x[Dairy_004]
   + 0.9 x[Dairy_005] + x[Dairy_006] + 0.3 x[Dairy_007] + 0.8 x[Dairy_008]
   + 0.5 x[Dairy_009] + 0.9 x[Dairy_010] + 0.2 x[Dairy_011]
   + 0.6 x[Dairy_012] + 0.1 x[Dairy_013] + 0.1 x[Dairy_014]
   + 0.4 x[Dairy_015] + 0.1 x[Dairy_016] + 0.1 x[Dairy_017]
   + 0.2 x[Dairy_018] + x[Dairy_019] + 0.8 x[Dairy_020] + 0.8 x[Dairy_021]
   + 0.3 x[Dairy_022] + 0.5 x[Dairy_023] + 0.9 x[Dairy_024]
   + 0.9 x[Dairy_025] + 0.7 x[Dairy_026] + x[Dairy_027] + 0.3 x[Dairy_028]
   + 0.4 x[Dairy_029] + 0.5 x[Dairy_030] + 0.7 x[Dairy_031]
   + 0.6 x[Dairy_032] + 0.3 x[Dairy_033] + 0.2 x[Dairy_034]
   + 0.6 x[Dairy_035] + 0.2 x[Dairy_036] + 0.4 x[Dairy_037]
   + 0.7 x[Dairy_038] + 0.3 x[Dairy_039] + 0.8 x[Dairy_040]
   + 0.8 x[Dairy_041] + 0.7 x[Dairy_042] + 0.2 x[Dairy_044]
   + 0.2 x[Dairy_045] + 0.5 x[Dairy_046] + 0.6 x[Dairy_047]
   + 0.4 x[Dairy_048] + 0.8 x[Dairy_049] + 0.3 x[Dairy_050]
   + 0.4 x[Meat_001] + 0.4 x[Meat_002] + 0.3 x[Meat_004] + 0.2 x[Meat_005]
   + 0.4 x[Meat_006] + 0.5 x[Meat_008] + 0.3 x[Meat_009] + 0.4 x[Meat_011]
   + 0.5 x[Meat_013] + 0.5 x[Meat_015] + 0.3 x[Meat_016] + 0.2 x[Meat_017]
   + 0.2 x[Meat_018] + 0.3 x[Meat_019] + 0.1 x[Meat_020] + 0.2 x[Meat_021]
   + 0.2 x[Meat_022] + 0.4 x[Meat_023] + 0.4 x[Meat_024] + 0.3 x[Meat_025]
   + 0.4 x[Meat_026] + 0.2 x[Meat_027] + 0.4 x[Meat_028] + 0.1 x[Meat_029]
   + 0.3 x[Meat_030] + 0.1 x[Meat_031] + 0.2 x[Meat_032] + 0.2 x[Meat_033]
   + 0.1 x[Meat_034] + 0.1 x[Meat_035] + 0.3 x[Meat_036] + 0.2 x[Meat_037]
   + 0.1 x[Meat_039] + 0.1 x[Meat_040] + 0.2 x[Meat_041] + 0.5 x[Meat_042]
   + 0.3 x[Meat_043] + 0.5 x[Meat_044] + 0.3 x[Meat_045] + 0.1 x[Meat_046]
   + 0.1 x[Meat_047] + 0.4 x[Meat_048] + 0.1 x[Meat_049] + 0.2 x[Meat_050]
   + 11.1 x[Fruit_001] + 83.3 x[Fruit_002] + 85.1 x[Fruit_003]
   + 80.6 x[Fruit_004] + 62.3 x[Fruit_005] + 27.9 x[Fruit_006]
   + 82.9 x[Fruit_007] + 12.8 x[Fruit_008] + 18.7 x[Fruit_009]
   + 74.2 x[Fruit_010] + 14.9 x[Fruit_011] + 78.9 x[Fruit_012]
   + 69.3 x[Fruit_013] + 83.9 x[Fruit_014] + 56.8 x[Fruit_015]
   + 39.7 x[Fruit_016] + 75.7 x[Fruit_017] + 76 x[Fruit_018]
   + 21.2 x[Fruit_019] + 72.2 x[Fruit_020] + 66.7 x[Fruit_021]
   + 46.2 x[Fruit_022] + 78.9 x[Fruit_023] + 70.9 x[Fruit_024]
   + 37.8 x[Fruit_025] + 47.7 x[Fruit_026] + 49.7 x[Fruit_027]
   + 18.1 x[Fruit_028] + 60.2 x[Fruit_029] + 66.1 x[Fruit_030]
   + 58.6 x[Fruit_031] + 13.4 x[Fruit_032] + 81.8 x[Fruit_033]
   + 17.4 x[Fruit_034] + 79 x[Fruit_035] + 24.7 x[Fruit_036]
   + 73.4 x[Fruit_037] + 34.4 x[Fruit_038] + 30.7 x[Fruit_039]
   + 35.5 x[Fruit_040] + 38.6 x[Fruit_041] + 75.8 x[Fruit_042]
   + 59.1 x[Fruit_043] + 59.9 x[Fruit_044] + 16.2 x[Fruit_045]
   + 16.2 x[Fruit_046] + 75.6 x[Fruit_047] + 79 x[Fruit_048]
   + 87.2 x[Fruit_049] + 36.1 x[Fruit_050] + 47.4 x[Veg_001]
   + 113.1 x[Veg_002] + 113.5 x[Veg_003] + 99.7 x[Veg_004]
   + 10.2 x[Veg_005] + 66.8 x[Veg_006] + 113.8 x[Veg_007] + 80.3 x[Veg_008]
   + 8.8 x[Veg_009] + 46.7 x[Veg_010] + 46.2 x[Veg_011] + 99.8 x[Veg_012]
   + 7.5 x[Veg_013] + 28.6 x[Veg_014] + 105 x[Veg_015] + 36.9 x[Veg_016]
   + 17.6 x[Veg_017] + 32.4 x[Veg_018] + 53.4 x[Veg_019] + 64 x[Veg_020]
   + 88.6 x[Veg_021] + 115.9 x[Veg_022] + 17.4 x[Veg_023] + 75 x[Veg_024]
   + 86.9 x[Veg_025] + 74.6 x[Veg_026] + 105.9 x[Veg_027] + 31.3 x[Veg_028]
   + 40.9 x[Veg_029] + 111.1 x[Veg_030] + 90.6 x[Veg_031] + 69.6 x[Veg_032]
   + 113.2 x[Veg_033] + 74 x[Veg_034] + 60.5 x[Veg_035] + 92.7 x[Veg_036]
   >= 60
 fat: 2.5 x[Oatmeal] + 5 x[Milk] + 5 x[Egg] + 0.4 x[Banana]
   + 4 x[Grain_001] + 4.6 x[Grain_002] + 1.9 x[Grain_003]
   + 3.2 x[Grain_004] + 1.6 x[Grain_005] + 2.3 x[Grain_006]
   + 4.2 x[Grain_007] + 2.2 x[Grain_008] + 3.8 x[Grain_009]
   + 4.4 x[Grain_010] + 2.5 x[Grain_011] + 3.7 x[Grain_012]
   + 1.7 x[Grain_013] + 1.9 x[Grain_014] + 1.1 x[Grain_015]
   + 3.3 x[Grain_016] + 4.7 x[Grain_017] + 3.2 x[Grain_018]
   + 1.9 x[Grain_019] + 4.4 x[Grain_020] + 1.3 x[Grain_021]
   + 3.2 x[Grain_022] + 3.1 x[Grain_023] + 1.6 x[Grain_024]
   + 3 x[Grain_025] + 3.6 x[Grain_026] + 4.8 x[Grain_027]
   + 1.1 x[Grain_028] + 2 x[Grain_029] + 1.3 x[Grain_030]
   + 4.8 x[Grain_031] + 1.8 x[Grain_032] + 2.6 x[Grain_033]
   + 2 x[Grain_034] + 1.9 x[Grain_035] + 1.1 x[Grain_036]
   + 1.9 x[Grain_037] + 2 x[Grain_038] + 2.7 x[Grain_039]
   + 3.6 x[Grain_040] + 4.4 x[Grain_041] + 1.7 x[Grain_042]
   + 4.4 x[Grain_043] + 4.9 x[Grain_044] + 2.9 x[Grain_045]
   + 4.9 x[Grain_046] + 3.8 x[Grain_047] + 1.6 x[Grain_048]
   + 1.2 x[Grain_049] + 4.4 x[Grain_050] + 3.5 x[Dairy_001]
   + 9.2 x[Dairy_002] + 7.6 x[Dairy_003] + 8 x[Dairy_004]
   + 6.2 x[Dairy_005] + 10 x[Dairy_006] + 3.9 x[Dairy_007]
   + 4.1 x[Dairy_008] + 8.6 x[Dairy_009] + 7.6 x[Dairy_010]
   + 8.2 x[Dairy_011] + 4.4 x[Dairy_012] + 9.4 x[Dairy_013]
   + 5.3 x[Dairy_014] + 6.9 x[Dairy_015] + 7.8 x[Dairy_016]
   + 4 x[Dairy_017] + 4.5 x[Dairy_018] + 9.1 x[Dairy_019]
   + 9.8 x[Dairy_020] + 9.5 x[Dairy_021] + 8.7 x[Dairy_022]
   + 3.3 x[Dairy_023] + 8.7 x[Dairy_024] + 5.3 x[Dairy_025]
   + 6.6 x[Dairy_026] + 3.8 x[Dairy_027] + 7.2 x[Dairy_028]
   + 6.6 x[Dairy_029] + 6.1 x[Dairy_030] + 8.2 x[Dairy_031]
   + 9.4 x[Dairy_032] + 5.1 x[Dairy_033] + 6.9 x[Dairy_034]
   + 9.3 x[Dairy_035] + 5.1 x[Dairy_036] + 6.3 x[Dairy_037]
   + 9.7 x[Dairy_038] + 7.4 x[Dairy_039] + 5.2 x[Dairy_040]
   + 6.3 x[Dairy_041] + 7 x[Dairy_042] + 7.6 x[Dairy_043]
   + 8.4 x[Dairy_044] + 3.4 x[Dairy_045] + 6.3 x[Dairy_046]
   + 9.2 x[Dairy_047] + 9.3 x[Dairy_048] + 8.3 x[Dairy_049]
   + 7.4 x[Dairy_050] + 8.4 x[Meat_001] + 11.9 x[Meat_002]
   + 9.7 x[Meat_003] + 10.8 x[Meat_004] + 5.1 x[Meat_005]
   + 12.3 x[Meat_006] + 9.4 x[Meat_007] + 13.4 x[Meat_008]
   + 8.9 x[Meat_009] + 9.6 x[Meat_010] + 8.4 x[Meat_011] + 5.8 x[Meat_012]
   + 5.7 x[Meat_013] + 7 x[Meat_014] + 6.1 x[Meat_015] + 6.7 x[Meat_016]
   + 6.6 x[Meat_017] + 14.1 x[Meat_018] + 11.9 x[Meat_019] + 11 x[Meat_020]
   + 9.3 x[Meat_021] + 9.2 x[Meat_022] + 13.3 x[Meat_023] + 7.7 x[Meat_024]
   + 13.3 x[Meat_025] + 5.9 x[Meat_026] + 11.7 x[Meat_027]
   + 7.1 x[Meat_028] + 10.2 x[Meat_029] + 12.6 x[Meat_030]
   + 5.2 x[Meat_031] + 10.8 x[Meat_032] + 10.5 x[Meat_033]
   + 6.2 x[Meat_034] + 11.9 x[Meat_035] + 14.8 x[Meat_036] + 8 x[Meat_037]
   + 5.5 x[Meat_038] + 12.5 x[Meat_039] + 9.4 x[Meat_040] + 5.7 x[Meat_041]
   + 13.1 x[Meat_042] + 12.6 x[Meat_043] + 8.8 x[Meat_044]
   + 8.1 x[Meat_045] + 7.1 x[Meat_046] + 10.5 x[Meat_047] + 7.3 x[Meat_048]
   + 7.3 x[Meat_049] + 14.3 x[Meat_050] + 0.8 x[Fruit_001]
   + 0.8 x[Fruit_002] + 0.7 x[Fruit_003] + 0.6 x[Fruit_004]
   + 0.2 x[Fruit_005] + 0.7 x[Fruit_006] + 0.7 x[Fruit_007]
   + 0.5 x[Fruit_008] + 0.1 x[Fruit_009] + 0.9 x[Fruit_010]
   + 0.3 x[Fruit_011] + 0.4 x[Fruit_013] + 0.5 x[Fruit_014] + x[Fruit_015]
   + 0.1 x[Fruit_017] + 0.3 x[Fruit_018] + 0.1 x[Fruit_019]
   + 0.3 x[Fruit_020] + 0.4 x[Fruit_022] + 0.9 x[Fruit_023]
   + 0.2 x[Fruit_024] + 0.8 x[Fruit_025] + 0.4 x[Fruit_027]
   + 0.7 x[Fruit_028] + 0.7 x[Fruit_029] + 0.3 x[Fruit_030]
   + 0.1 x[Fruit_031] + 0.4 x[Fruit_032] + 0.7 x[Fruit_033]
   + 0.4 x[Fruit_034] + 0.1 x[Fruit_035] + 0.6 x[Fruit_036]
   + 0.4 x[Fruit_038] + 0.5 x[Fruit_039] + 0.4 x[Fruit_040]
   + 0.8 x[Fruit_041] + 0.7 x[Fruit_042] + 0.4 x[Fruit_043]
   + 0.9 x[Fruit_044] + 0.4 x[Fruit_045] + 0.2 x[Fruit_046]
   + 0.9 x[Fruit_047] + 0.3 x[Fruit_048] + 0.1 x[Fruit_049]
   + 0.8 x[Fruit_050] + 0.1 x[Veg_001] + 0.8 x[Veg_002] + 0.6 x[Veg_003]
   + 0.1 x[Veg_004] + 0.1 x[Veg_005] + 0.2 x[Veg_006] + 0.7 x[Veg_007]
   + 0.9 x[Veg_008] + x[Veg_009] + 0.2 x[Veg_010] + x[Veg_011]
   + 0.9 x[Veg_012] + 0.6 x[Veg_013] + 0.8 x[Veg_014] + 0.2 x[Veg_015]
   + 0.6 x[Veg_016] + 0.8 x[Veg_017] + 0.8 x[Veg_018] + 0.1 x[Veg_019]
   + 0.8 x[Veg_020] + 0.6 x[Veg_021] + 0.5 x[Veg_022] + 0.4 x[Veg_023]
   + 0.1 x[Veg_024] + 0.6 x[Veg_025] + 0.5 x[Veg_026] + 0.7 x[Veg_027]
   + 0.5 x[Veg_028] + 0.7 x[Veg_029] + 0.2 x[Veg_030] + 0.4 x[Veg_031]
   + 0.6 x[Veg_032] + 0.9 x[Veg_033] + x[Veg_034] + 0.2 x[Veg_035]
   + 0.4 x[Veg_036] <= 70
Bounds
End
